c random clauses
p cnf 10 16
-10 -9 -8 -3 -1 2 5 6 0
-10 -9 -8 -2 1 4 5 7 0
-10 -8 -7 -6 -5 -4 2 9 0
-10 -7 -6 -2 1 4 5 8 0
-10 -7 -5 -3 1 6 8 9 0
-10 -6 -2 1 3 4 7 8 0
-10 -6 -1 3 4 5 8 9 0
-10 -5 -2 3 4 6 8 9 0
-10 -3 -1 4 5 6 7 9 0
-9 -7 -2 1 3 4 6 10 0
-9 -5 -4 -1 2 6 7 10 0
-8 -6 -2 -1 5 7 9 10 0
-7 -6 -4 -2 3 5 9 10 0
-5 -4 -3 2 6 8 9 10 0
-4 -3 -1 2 5 6 7 8 0
1 3 4 5 7 8 9 10 0
